; benchmark generated from python API
(set-info :status unknown)
(declare-fun x_months () (_ BitVec 32))
(declare-fun x_beta () (_ BitVec 32))
(declare-fun y_months () (_ BitVec 32))
(declare-fun y_beta () (_ BitVec 32))
(assert
 (bvsle (_ bv4294966096 32) x_months))
(assert
 (bvsge (_ bv1199 32) x_months))
(assert
 (bvsle (_ bv0 32) x_beta))
(assert
 (let ((?x59956 (bvadd x_months (_ bv24003 32))))
 (let ((?x20024 (bvsub ?x59956 (bvmul (bvsdiv (bvsub ?x59956 (_ bv1 32)) (_ bv12 32)) (_ bv12 32)))))
 (let ((?x23167 (ite (or (= ?x20024 (_ bv4 32)) (= ?x20024 (_ bv6 32)) (= ?x20024 (_ bv9 32)) (= ?x20024 (_ bv11 32))) (_ bv30 32) (_ bv31 32))))
 (let (($x32280 (and (= (bvsmod (bvsdiv (bvsub ?x59956 (_ bv1 32)) (_ bv12 32)) (_ bv4 32)) (_ bv0 32)) (and (distinct (bvsmod (bvsdiv (bvsub ?x59956 (_ bv1 32)) (_ bv12 32)) (_ bv100 32)) (_ bv0 32)) true))))
 (let ((?x47118 (ite (or $x32280 (= (bvsmod (bvsdiv (bvsub ?x59956 (_ bv1 32)) (_ bv12 32)) (_ bv400 32)) (_ bv0 32))) (_ bv29 32) (_ bv28 32))))
 (bvslt x_beta (ite (= ?x20024 (_ bv2 32)) ?x47118 ?x23167))))))))
(assert
 (bvsle (_ bv4294966096 32) y_months))
(assert
 (bvsge (_ bv1199 32) y_months))
(assert
 (bvsle (_ bv0 32) y_beta))
(assert
 (let ((?x11341 (bvadd y_months (_ bv24003 32))))
 (let ((?x27298 (bvsub ?x11341 (bvmul (bvsdiv (bvsub ?x11341 (_ bv1 32)) (_ bv12 32)) (_ bv12 32)))))
 (let ((?x1716 (ite (or (= ?x27298 (_ bv4 32)) (= ?x27298 (_ bv6 32)) (= ?x27298 (_ bv9 32)) (= ?x27298 (_ bv11 32))) (_ bv30 32) (_ bv31 32))))
 (let (($x24485 (and (= (bvsmod (bvsdiv (bvsub ?x11341 (_ bv1 32)) (_ bv12 32)) (_ bv4 32)) (_ bv0 32)) (and (distinct (bvsmod (bvsdiv (bvsub ?x11341 (_ bv1 32)) (_ bv12 32)) (_ bv100 32)) (_ bv0 32)) true))))
 (let ((?x12194 (ite (or $x24485 (= (bvsmod (bvsdiv (bvsub ?x11341 (_ bv1 32)) (_ bv12 32)) (_ bv400 32)) (_ bv0 32))) (_ bv29 32) (_ bv28 32))))
 (bvslt y_beta (ite (= ?x27298 (_ bv2 32)) ?x12194 ?x1716))))))))
(assert
 (let (($x52014 (bvsle (_ bv30 32) x_beta)))
 (or (bvsgt x_months (bvsub (bvadd (bvmul (_ bv2019 32) (_ bv12 32)) (_ bv12 32)) (_ bv24003 32))) (and (= x_months (bvsub (bvadd (bvmul (_ bv2019 32) (_ bv12 32)) (_ bv12 32)) (_ bv24003 32))) $x52014))))
(assert
 (let (($x10858 (and (= x_months (bvsub (bvadd (bvmul (_ bv2020 32) (_ bv12 32)) (_ bv2 32)) (_ bv24003 32))) (bvsge (_ bv0 32) x_beta))))
 (or (bvslt x_months (bvsub (bvadd (bvmul (_ bv2020 32) (_ bv12 32)) (_ bv2 32)) (_ bv24003 32))) $x10858)))
(assert
 (let ((?x8686 (bvadd x_beta (_ bv1 32))))
 (let ((?x12213 (bvsdiv (bvsub (bvadd (bvadd x_months (_ bv12 32)) (_ bv24003 32)) (_ bv1 32)) (_ bv12 32))))
 (let ((?x44664 (bvadd (bvadd x_months (_ bv12 32)) (_ bv24003 32))))
 (let ((?x65715 (bvsub ?x44664 (bvmul ?x12213 (_ bv12 32)))))
 (let ((?x60132 (ite (or (= ?x65715 (_ bv4 32)) (= ?x65715 (_ bv6 32)) (= ?x65715 (_ bv9 32)) (= ?x65715 (_ bv11 32))) (_ bv30 32) (_ bv31 32))))
 (let (($x4273 (or (and (= (bvsmod ?x12213 (_ bv4 32)) (_ bv0 32)) (and (distinct (bvsmod ?x12213 (_ bv100 32)) (_ bv0 32)) true)) (= (bvsmod ?x12213 (_ bv400 32)) (_ bv0 32)))))
 (let ((?x33074 (ite (= ?x65715 (_ bv2 32)) (ite $x4273 (_ bv29 32) (_ bv28 32)) ?x60132)))
 (let (($x57921 (bvsgt (_ bv1 32) ?x8686)))
 (let ((?x18341 (ite $x57921 (_ bv1 32) (ite (bvsgt ?x8686 ?x33074) ?x33074 ?x8686))))
 (let ((?x11615 (ite (bvsgt (_ bv1 32) ?x18341) (_ bv1 32) (ite (bvsgt ?x18341 ?x33074) ?x33074 ?x18341))))
 (let ((?x39985 (ite (= (_ bv2 32) ?x65715) (ite $x4273 (_ bv31 32) (_ bv31 32)) (ite (= (_ bv1 32) ?x65715) (ite $x4273 (_ bv0 32) (_ bv0 32)) (_ bv0 32)))))
 (let ((?x11041 (ite (= (_ bv4 32) ?x65715) (ite $x4273 (_ bv91 32) (_ bv90 32)) (ite (= (_ bv3 32) ?x65715) (ite $x4273 (_ bv60 32) (_ bv59 32)) ?x39985))))
 (let ((?x70554 (ite (= (_ bv6 32) ?x65715) (ite $x4273 (_ bv152 32) (_ bv151 32)) (ite (= (_ bv5 32) ?x65715) (ite $x4273 (_ bv121 32) (_ bv120 32)) ?x11041))))
 (let ((?x65675 (ite (= (_ bv8 32) ?x65715) (ite $x4273 (_ bv213 32) (_ bv212 32)) (ite (= (_ bv7 32) ?x65715) (ite $x4273 (_ bv182 32) (_ bv181 32)) ?x70554))))
 (let ((?x46249 (ite (= (_ bv10 32) ?x65715) (ite $x4273 (_ bv274 32) (_ bv273 32)) (ite (= (_ bv9 32) ?x65715) (ite $x4273 (_ bv244 32) (_ bv243 32)) ?x65675))))
 (let ((?x18197 (ite (= (_ bv12 32) ?x65715) (ite $x4273 (_ bv335 32) (_ bv334 32)) (ite (= (_ bv11 32) ?x65715) (ite $x4273 (_ bv305 32) (_ bv304 32)) ?x46249))))
 (let ((?x85787 (bvadd (bvmul (_ bv365 32) (bvsub ?x12213 (_ bv1 32))) (bvsdiv (bvsub ?x12213 (_ bv1 32)) (_ bv4 32)))))
 (let ((?x50949 (bvadd (bvsub ?x85787 (bvsdiv (bvsub ?x12213 (_ bv1 32)) (_ bv100 32))) (bvsdiv (bvsub ?x12213 (_ bv1 32)) (_ bv400 32)))))
 (let ((?x54960 (bvadd (bvadd (bvsub (bvadd (bvadd ?x50949 ?x18197) (bvsub ?x11615 (_ bv1 32))) (_ bv730179 32)) (_ bv0 32)) (_ bv730179 32))))
 (let ((?x8730 (bvsmod ?x54960 (_ bv146097 32))))
 (let ((?x43216 (bvsdiv ?x8730 (_ bv36524 32))))
 (let ((?x83999 (ite (bvsle (_ bv4 32) ?x43216) (_ bv3 32) ?x43216)))
 (let ((?x28830 (bvsub ?x8730 (bvmul ?x83999 (_ bv36524 32)))))
 (let ((?x60000 (bvsmod ?x28830 (_ bv1461 32))))
 (let ((?x11343 (bvsdiv ?x60000 (_ bv365 32))))
 (let ((?x83251 (ite (bvsle (_ bv4 32) ?x11343) (_ bv3 32) ?x11343)))
 (let ((?x36325 (bvadd (bvadd (bvmul (bvsdiv ?x54960 (_ bv146097 32)) (_ bv400 32)) (bvmul ?x83999 (_ bv100 32))) (bvmul (bvsdiv ?x28830 (_ bv1461 32)) (_ bv4 32)))))
 (let ((?x41986 (bvadd (bvadd ?x36325 ?x83251) (_ bv1 32))))
 (let (($x65901 (or (and (= (bvsmod ?x41986 (_ bv4 32)) (_ bv0 32)) (and (distinct (bvsmod ?x41986 (_ bv100 32)) (_ bv0 32)) true)) (= (bvsmod ?x41986 (_ bv400 32)) (_ bv0 32)))))
 (let ((?x44043 (bvsub ?x60000 (bvmul ?x83251 (_ bv365 32)))))
 (let ((?x16147 (ite $x65901 (_ bv31 32) (_ bv31 32))))
 (let (($x37251 (bvsge ?x44043 ?x16147)))
 (let ((?x75811 (ite $x37251 (bvadd (bvsub ?x44043 ?x16147) (_ bv1 32)) (bvadd (bvsub ?x44043 (ite $x65901 (_ bv0 32) (_ bv0 32))) (_ bv1 32)))))
 (let ((?x52061 (ite $x65901 (_ bv60 32) (_ bv59 32))))
 (let (($x7024 (bvsge ?x44043 ?x52061)))
 (let ((?x41804 (ite $x65901 (_ bv91 32) (_ bv90 32))))
 (let (($x17759 (bvsge ?x44043 ?x41804)))
 (let ((?x61147 (ite $x17759 (bvadd (bvsub ?x44043 ?x41804) (_ bv1 32)) (ite $x7024 (bvadd (bvsub ?x44043 ?x52061) (_ bv1 32)) ?x75811))))
 (let ((?x2065 (ite $x65901 (_ bv121 32) (_ bv120 32))))
 (let (($x38300 (bvsge ?x44043 ?x2065)))
 (let ((?x84628 (ite $x65901 (_ bv152 32) (_ bv151 32))))
 (let (($x8494 (bvsge ?x44043 ?x84628)))
 (let ((?x50292 (ite $x8494 (bvadd (bvsub ?x44043 ?x84628) (_ bv1 32)) (ite $x38300 (bvadd (bvsub ?x44043 ?x2065) (_ bv1 32)) ?x61147))))
 (let ((?x6880 (ite $x65901 (_ bv182 32) (_ bv181 32))))
 (let (($x44803 (bvsge ?x44043 ?x6880)))
 (let ((?x42828 (ite $x65901 (_ bv213 32) (_ bv212 32))))
 (let (($x23001 (bvsge ?x44043 ?x42828)))
 (let ((?x84876 (ite $x23001 (bvadd (bvsub ?x44043 ?x42828) (_ bv1 32)) (ite $x44803 (bvadd (bvsub ?x44043 ?x6880) (_ bv1 32)) ?x50292))))
 (let ((?x14455 (ite $x65901 (_ bv244 32) (_ bv243 32))))
 (let (($x74365 (bvsge ?x44043 ?x14455)))
 (let ((?x63656 (ite $x65901 (_ bv274 32) (_ bv273 32))))
 (let (($x43055 (bvsge ?x44043 ?x63656)))
 (let ((?x24453 (ite $x43055 (bvadd (bvsub ?x44043 ?x63656) (_ bv1 32)) (ite $x74365 (bvadd (bvsub ?x44043 ?x14455) (_ bv1 32)) ?x84876))))
 (let ((?x6790 (ite $x65901 (_ bv305 32) (_ bv304 32))))
 (let (($x50791 (bvsge ?x44043 ?x6790)))
 (let ((?x12862 (ite $x65901 (_ bv335 32) (_ bv334 32))))
 (let (($x60098 (bvsge ?x44043 ?x12862)))
 (let ((?x10867 (ite $x60098 (bvadd (bvsub ?x44043 ?x12862) (_ bv1 32)) (ite $x50791 (bvadd (bvsub ?x44043 ?x6790) (_ bv1 32)) ?x24453))))
 (let (($x2020 (= (_ bv0 32) (_ bv0 32))))
 (let ((?x43196 (ite $x8494 (_ bv6 32) (ite $x38300 (_ bv5 32) (ite $x17759 (_ bv4 32) (ite $x7024 (_ bv3 32) (ite $x37251 (_ bv2 32) (_ bv1 32))))))))
 (let ((?x61095 (ite $x50791 (_ bv11 32) (ite $x43055 (_ bv10 32) (ite $x74365 (_ bv9 32) (ite $x23001 (_ bv8 32) (ite $x44803 (_ bv7 32) ?x43196)))))))
 (let ((?x71516 (bvadd (bvmul (ite $x2020 ?x12213 ?x41986) (_ bv12 32)) (ite $x2020 ?x65715 (ite $x60098 (_ bv12 32) ?x61095)))))
 (and (= y_months (bvsub ?x71516 (_ bv24003 32))) (= y_beta (bvsub (ite $x2020 ?x11615 ?x10867) (_ bv1 32)))))))))))))))))))))))))))))))))))))))))))))))))))))))))))))))))))
(assert
 (let ((?x8686 (bvadd x_beta (_ bv1 32))))
(let ((?x85994 (bvsdiv (bvsub (bvadd (bvadd x_months (_ bv0 32)) (_ bv24003 32)) (_ bv1 32)) (_ bv12 32))))
(let ((?x73168 (bvadd (bvadd x_months (_ bv0 32)) (_ bv24003 32))))
(let ((?x13201 (bvsub ?x73168 (bvmul ?x85994 (_ bv12 32)))))
(let ((?x29577 (ite (or (= ?x13201 (_ bv4 32)) (= ?x13201 (_ bv6 32)) (= ?x13201 (_ bv9 32)) (= ?x13201 (_ bv11 32))) (_ bv30 32) (_ bv31 32))))
(let (($x85826 (or (and (= (bvsmod ?x85994 (_ bv4 32)) (_ bv0 32)) (and (distinct (bvsmod ?x85994 (_ bv100 32)) (_ bv0 32)) true)) (= (bvsmod ?x85994 (_ bv400 32)) (_ bv0 32)))))
(let ((?x37745 (ite (= ?x13201 (_ bv2 32)) (ite $x85826 (_ bv29 32) (_ bv28 32)) ?x29577)))
(let (($x57921 (bvsgt (_ bv1 32) ?x8686)))
(let ((?x45812 (ite $x57921 (_ bv1 32) (ite (bvsgt ?x8686 ?x37745) ?x37745 ?x8686))))
(let ((?x84515 (ite (bvsgt (_ bv1 32) ?x45812) (_ bv1 32) (ite (bvsgt ?x45812 ?x37745) ?x37745 ?x45812))))
(let ((?x7277 (ite (= (_ bv2 32) ?x13201) (ite $x85826 (_ bv31 32) (_ bv31 32)) (ite (= (_ bv1 32) ?x13201) (ite $x85826 (_ bv0 32) (_ bv0 32)) (_ bv0 32)))))
(let ((?x37720 (ite (= (_ bv4 32) ?x13201) (ite $x85826 (_ bv91 32) (_ bv90 32)) (ite (= (_ bv3 32) ?x13201) (ite $x85826 (_ bv60 32) (_ bv59 32)) ?x7277))))
(let ((?x77945 (ite (= (_ bv6 32) ?x13201) (ite $x85826 (_ bv152 32) (_ bv151 32)) (ite (= (_ bv5 32) ?x13201) (ite $x85826 (_ bv121 32) (_ bv120 32)) ?x37720))))
(let ((?x17727 (ite (= (_ bv8 32) ?x13201) (ite $x85826 (_ bv213 32) (_ bv212 32)) (ite (= (_ bv7 32) ?x13201) (ite $x85826 (_ bv182 32) (_ bv181 32)) ?x77945))))
(let ((?x8736 (ite (= (_ bv10 32) ?x13201) (ite $x85826 (_ bv274 32) (_ bv273 32)) (ite (= (_ bv9 32) ?x13201) (ite $x85826 (_ bv244 32) (_ bv243 32)) ?x17727))))
(let ((?x2238 (ite (= (_ bv12 32) ?x13201) (ite $x85826 (_ bv335 32) (_ bv334 32)) (ite (= (_ bv11 32) ?x13201) (ite $x85826 (_ bv305 32) (_ bv304 32)) ?x8736))))
(let ((?x86700 (bvadd (bvmul (_ bv365 32) (bvsub ?x85994 (_ bv1 32))) (bvsdiv (bvsub ?x85994 (_ bv1 32)) (_ bv4 32)))))
(let ((?x39763 (bvadd (bvsub ?x86700 (bvsdiv (bvsub ?x85994 (_ bv1 32)) (_ bv100 32))) (bvsdiv (bvsub ?x85994 (_ bv1 32)) (_ bv400 32)))))
(let ((?x18778 (bvadd (bvadd (bvsub (bvadd (bvadd ?x39763 ?x2238) (bvsub ?x84515 (_ bv1 32))) (_ bv730179 32)) (_ bv365 32)) (_ bv730179 32))))
(let ((?x42140 (bvsmod ?x18778 (_ bv146097 32))))
(let ((?x42007 (bvsdiv ?x42140 (_ bv36524 32))))
(let ((?x77718 (ite (bvsle (_ bv4 32) ?x42007) (_ bv3 32) ?x42007)))
(let ((?x76402 (bvsub ?x42140 (bvmul ?x77718 (_ bv36524 32)))))
(let ((?x37812 (bvsmod ?x76402 (_ bv1461 32))))
(let ((?x85882 (bvsdiv ?x37812 (_ bv365 32))))
(let ((?x68419 (ite (bvsle (_ bv4 32) ?x85882) (_ bv3 32) ?x85882)))
(let ((?x47165 (bvadd (bvadd (bvmul (bvsdiv ?x18778 (_ bv146097 32)) (_ bv400 32)) (bvmul ?x77718 (_ bv100 32))) (bvmul (bvsdiv ?x76402 (_ bv1461 32)) (_ bv4 32)))))
(let ((?x16921 (bvadd (bvadd ?x47165 ?x68419) (_ bv1 32))))
(let (($x26034 (or (and (= (bvsmod ?x16921 (_ bv4 32)) (_ bv0 32)) (and (distinct (bvsmod ?x16921 (_ bv100 32)) (_ bv0 32)) true)) (= (bvsmod ?x16921 (_ bv400 32)) (_ bv0 32)))))
(let ((?x19967 (bvsub ?x37812 (bvmul ?x68419 (_ bv365 32)))))
(let ((?x37236 (ite $x26034 (_ bv31 32) (_ bv31 32))))
(let (($x37557 (bvsge ?x19967 ?x37236)))
(let ((?x6178 (ite $x37557 (bvadd (bvsub ?x19967 ?x37236) (_ bv1 32)) (bvadd (bvsub ?x19967 (ite $x26034 (_ bv0 32) (_ bv0 32))) (_ bv1 32)))))
(let ((?x41404 (ite $x26034 (_ bv60 32) (_ bv59 32))))
(let (($x38542 (bvsge ?x19967 ?x41404)))
(let ((?x75274 (ite $x26034 (_ bv91 32) (_ bv90 32))))
(let (($x74190 (bvsge ?x19967 ?x75274)))
(let ((?x17955 (ite $x74190 (bvadd (bvsub ?x19967 ?x75274) (_ bv1 32)) (ite $x38542 (bvadd (bvsub ?x19967 ?x41404) (_ bv1 32)) ?x6178))))
(let ((?x77263 (ite $x26034 (_ bv121 32) (_ bv120 32))))
(let (($x26170 (bvsge ?x19967 ?x77263)))
(let ((?x1418 (ite $x26034 (_ bv152 32) (_ bv151 32))))
(let (($x3710 (bvsge ?x19967 ?x1418)))
(let ((?x59271 (ite $x3710 (bvadd (bvsub ?x19967 ?x1418) (_ bv1 32)) (ite $x26170 (bvadd (bvsub ?x19967 ?x77263) (_ bv1 32)) ?x17955))))
(let ((?x74656 (ite $x26034 (_ bv182 32) (_ bv181 32))))
(let (($x29504 (bvsge ?x19967 ?x74656)))
(let ((?x62341 (ite $x26034 (_ bv213 32) (_ bv212 32))))
(let (($x36417 (bvsge ?x19967 ?x62341)))
(let ((?x83667 (ite $x36417 (bvadd (bvsub ?x19967 ?x62341) (_ bv1 32)) (ite $x29504 (bvadd (bvsub ?x19967 ?x74656) (_ bv1 32)) ?x59271))))
(let ((?x83649 (ite $x26034 (_ bv244 32) (_ bv243 32))))
(let (($x61303 (bvsge ?x19967 ?x83649)))
(let ((?x58120 (ite $x26034 (_ bv274 32) (_ bv273 32))))
(let (($x38735 (bvsge ?x19967 ?x58120)))
(let ((?x44843 (ite $x38735 (bvadd (bvsub ?x19967 ?x58120) (_ bv1 32)) (ite $x61303 (bvadd (bvsub ?x19967 ?x83649) (_ bv1 32)) ?x83667))))
(let ((?x84429 (ite $x26034 (_ bv305 32) (_ bv304 32))))
(let (($x56692 (bvsge ?x19967 ?x84429)))
(let ((?x43814 (ite $x26034 (_ bv335 32) (_ bv334 32))))
(let (($x39045 (bvsge ?x19967 ?x43814)))
(let ((?x71273 (ite $x39045 (bvadd (bvsub ?x19967 ?x43814) (_ bv1 32)) (ite $x56692 (bvadd (bvsub ?x19967 ?x84429) (_ bv1 32)) ?x44843))))
(let (($x41040 (= (_ bv365 32) (_ bv0 32))))
(let ((?x29672 (ite $x3710 (_ bv6 32) (ite $x26170 (_ bv5 32) (ite $x74190 (_ bv4 32) (ite $x38542 (_ bv3 32) (ite $x37557 (_ bv2 32) (_ bv1 32))))))))
(let ((?x62518 (ite $x56692 (_ bv11 32) (ite $x38735 (_ bv10 32) (ite $x61303 (_ bv9 32) (ite $x36417 (_ bv8 32) (ite $x29504 (_ bv7 32) ?x29672)))))))
(let ((?x77517 (ite $x39045 (_ bv12 32) ?x62518)))
(let ((?x26265 (bvsub (bvadd (bvmul (ite $x41040 ?x85994 ?x16921) (_ bv12 32)) (ite $x41040 ?x13201 ?x77517)) (_ bv24003 32))))
(let (($x61390 (and (= y_months ?x26265) (= y_beta (bvsub (ite $x41040 ?x84515 ?x71273) (_ bv1 32))))))
(not $x61390))))))))))))))))))))))))))))))))))))))))))))))))))))))))))))))))))
(check-sat)
